c FILE			: s7.gr
c No. of vertices	: 128
c No. of directed edges	: 1016
c Max. weight		: 128
c Min. weight		: 0
c A directed arc from u to v of weight w
c is represented below as ' a  u  v  w '
p sp 128 1016
a 1 55 35
a 1 55 94
a 1 55 92
a 1 125 10
a 1 125 121
a 1 125 56
a 1 63 108
a 1 63 50
a 2 108 105
a 2 108 14
a 2 106 71
a 2 102 121
a 3 97 14
a 3 97 10
a 3 102 108
a 3 102 103
a 3 71 111
a 3 71 115
a 3 71 31
a 3 116 64
a 3 12 57
a 4 116 16
a 4 116 19
a 4 116 68
a 4 43 15
a 4 43 25
a 4 66 4
a 4 66 11
a 4 66 116
a 4 31 64
a 4 31 65
a 4 12 46
a 5 123 118
a 5 123 26
a 5 123 17
a 5 117 17
a 5 117 84
a 5 52 13
a 5 52 53
a 5 52 10
a 5 14 122
a 5 14 30
a 5 14 108
a 5 39 80
a 6 65 21
a 6 65 1
a 6 65 25
a 6 109 81
a 6 109 72
a 6 109 116
a 6 113 23
a 6 113 81
a 6 93 5
a 6 93 64
a 6 93 75
a 6 77 28
a 7 104 68
a 7 104 42
a 7 104 82
a 7 128 70
a 7 128 84
a 7 128 80
a 8 24 119
a 8 24 117
a 8 76 28
a 8 76 63
a 8 112 7
a 8 112 65
a 8 120 25
a 8 120 107
a 8 120 85
a 9 18 33
a 9 18 124
a 9 18 121
a 9 103 116
a 9 103 29
a 9 103 86
a 9 98 127
a 9 98 111
a 9 98 59
a 10 37 81
a 10 37 75
a 10 37 34
a 10 59 82
a 10 59 63
a 10 59 36
a 10 13 119
a 10 13 111
a 10 13 63
a 11 85 66
a 11 85 107
a 11 2 92
a 12 31 93
a 12 31 32
a 12 31 36
a 12 49 117
a 12 49 127
a 12 25 112
a 12 25 37
a 12 25 69
a 12 79 6
a 12 79 71
a 12 95 40
a 13 37 81
a 13 37 19
a 13 37 84
a 13 21 76
a 13 21 78
a 13 10 104
a 13 10 50
a 13 59 114
a 13 59 83
a 13 7 43
a 13 78 0
a 14 5 43
a 14 5 34
a 14 5 28
a 14 123 120
a 14 123 59
a 14 117 34
a 14 117 96
a 14 117 10
a 14 52 99
a 14 52 19
a 14 52 112
a 14 17 23
a 14 17 88
a 15 107 26
a 16 83 118
a 16 83 79
a 16 53 7
a 16 53 19
a 16 53 3
a 16 56 118
a 16 56 29
a 16 114 120
a 16 81 14
a 17 119 79
a 17 119 104
a 17 86 77
a 17 86 84
a 17 86 87
a 17 81 115
a 17 81 90
a 17 100 92
a 18 29 121
a 18 29 114
a 18 29 99
a 18 103 51
a 18 103 48
a 18 103 17
a 18 98 76
a 18 98 127
a 18 98 126
a 19 41 89
a 19 41 42
a 19 41 106
a 19 84 84
a 20 67 114
a 20 67 24
a 20 67 120
a 20 27 114
a 20 1 5
a 20 1 124
a 20 76 115
a 21 37 90
a 21 37 41
a 21 10 0
a 21 10 110
a 21 59 15
a 21 59 68
a 21 59 1
a 21 13 16
a 21 13 3
a 21 50 124
a 21 82 105
a 22 46 51
a 22 46 122
a 22 46 65
a 22 30 101
a 23 110 45
a 23 110 60
a 23 110 89
a 23 57 117
a 23 57 62
a 23 57 64
a 23 96 87
a 23 96 106
a 23 33 47
a 23 77 33
a 24 76 72
a 24 76 26
a 24 8 115
a 24 8 51
a 24 112 64
a 24 112 97
a 24 120 57
a 24 120 37
a 24 61 100
a 24 61 74
a 25 31 111
a 25 31 117
a 25 31 123
a 25 49 101
a 25 49 61
a 25 49 79
a 25 12 61
a 25 12 106
a 25 12 0
a 25 121 72
a 26 78 12
a 26 78 79
a 26 82 23
a 26 82 104
a 26 68 98
a 26 41 6
a 27 88 52
a 27 88 98
a 27 99 77
a 27 99 26
a 27 99 113
a 27 55 18
a 27 55 100
a 28 68 76
a 28 68 29
a 28 68 99
a 28 41 4
a 28 54 75
a 29 18 117
a 29 18 101
a 29 18 8
a 29 103 32
a 29 103 40
a 29 9 9
a 29 9 84
a 30 94 104
a 30 94 67
a 30 37 30
a 30 37 111
a 31 49 97
a 31 49 78
a 31 49 83
a 31 12 100
a 31 12 72
a 31 25 61
a 31 25 124
a 31 40 15
a 32 62 81
a 32 62 110
a 32 39 94
a 32 39 31
a 32 39 69
a 32 11 30
a 33 105 114
a 33 105 113
a 33 92 92
a 33 92 116
a 33 46 44
a 34 32 30
a 34 32 54
a 34 32 32
a 34 62 103
a 34 62 26
a 34 62 26
a 34 39 55
a 34 39 58
a 35 54 3
a 35 54 83
a 35 122 6
a 35 122 51
a 35 118 84
a 36 45 70
a 36 45 117
a 36 45 12
a 36 38 93
a 36 38 120
a 37 21 100
a 37 21 49
a 37 10 45
a 37 10 81
a 37 59 34
a 37 59 106
a 37 59 80
a 37 13 60
a 37 13 125
a 37 13 54
a 37 50 0
a 37 50 8
a 38 61 8
a 38 61 76
a 38 61 32
a 38 73 68
a 38 73 105
a 38 73 41
a 38 123 50
a 38 42 5
a 39 32 52
a 39 32 114
a 39 32 29
a 39 34 16
a 39 34 22
a 39 34 113
a 39 62 12
a 39 62 10
a 39 62 71
a 39 15 77
a 39 15 11
a 39 107 118
a 39 106 126
a 40 47 22
a 40 47 100
a 40 47 108
a 40 65 61
a 40 65 58
a 40 109 113
a 41 19 35
a 41 19 126
a 41 54 6
a 41 89 104
a 42 119 7
a 42 34 94
a 43 4 69
a 43 4 124
a 43 66 66
a 43 66 1
a 43 66 88
a 43 12 113
a 43 12 73
a 43 12 99
a 43 37 40
a 44 36 115
a 44 38 20
a 45 36 92
a 45 36 46
a 45 61 5
a 45 61 18
a 45 5 85
a 45 121 32
a 46 22 47
a 46 22 121
a 46 94 47
a 46 51 123
a 46 51 125
a 46 41 58
a 46 125 35
a 47 40 117
a 47 40 1
a 47 40 120
a 47 93 14
a 47 105 8
a 47 94 82
a 48 20 59
a 48 20 67
a 48 99 112
a 48 16 103
a 49 31 65
a 49 31 44
a 49 31 123
a 49 12 3
a 49 12 10
a 49 25 77
a 49 25 112
a 50 7 93
a 50 7 5
a 50 104 5
a 50 104 109
a 50 104 29
a 50 128 111
a 50 128 3
a 50 128 47
a 50 78 112
a 50 99 15
a 50 3 49
a 51 21 107
a 51 21 111
a 51 59 11
a 52 123 36
a 52 123 96
a 52 123 5
a 52 117 73
a 52 117 95
a 52 14 96
a 52 14 24
a 52 42 119
a 52 42 8
a 52 119 106
a 53 83 49
a 53 83 72
a 53 69 49
a 53 91 43
a 53 91 94
a 54 122 32
a 54 122 54
a 54 122 69
a 54 89 119
a 54 89 26
a 54 35 1
a 54 35 68
a 54 35 118
a 55 1 102
a 55 1 41
a 55 63 89
a 55 63 123
a 55 16 22
a 56 69 126
a 56 69 59
a 56 69 95
a 56 91 3
a 56 91 40
a 56 115 80
a 56 115 34
a 57 110 89
a 57 110 35
a 57 110 75
a 57 23 115
a 57 23 8
a 57 23 15
a 57 96 88
a 57 96 90
a 57 96 100
a 57 127 81
a 58 100 53
a 58 100 99
a 58 100 49
a 58 60 35
a 58 60 47
a 58 60 7
a 58 70 112
a 58 70 12
a 58 70 65
a 59 37 11
a 59 37 57
a 59 10 48
a 59 10 21
a 59 10 81
a 59 13 114
a 59 13 48
a 59 13 120
a 59 50 42
a 59 50 88
a 59 50 89
a 59 128 29
a 59 72 18
a 60 58 86
a 60 58 106
a 60 58 1
a 60 100 81
a 60 100 81
a 60 100 114
a 60 70 94
a 60 70 92
a 60 32 75
a 60 32 8
a 60 39 110
a 60 39 76
a 60 85 29
a 61 38 53
a 61 38 69
a 61 38 110
a 61 73 108
a 61 73 9
a 61 5 35
a 62 32 26
a 62 32 125
a 62 32 99
a 62 34 34
a 62 34 13
a 62 34 77
a 62 39 34
a 62 39 26
a 62 49 42
a 62 53 57
a 63 55 2
a 63 55 60
a 63 55 119
a 63 1 36
a 63 1 0
a 63 125 29
a 63 125 42
a 64 6 87
a 64 110 54
a 64 94 0
a 65 109 98
a 65 109 37
a 65 109 87
a 65 113 11
a 65 113 125
a 65 93 123
a 65 93 61
a 65 120 49
a 66 116 126
a 66 116 47
a 66 43 58
a 66 43 73
a 66 43 33
a 66 4 106
a 66 4 115
a 66 4 83
a 66 49 76
a 66 49 38
a 66 49 85
a 66 79 41
a 67 20 78
a 67 20 62
a 67 20 68
a 67 88 4
a 67 88 8
a 68 28 89
a 68 28 60
a 69 56 46
a 69 56 108
a 69 56 52
a 69 126 59
a 69 126 120
a 69 91 110
a 69 91 34
a 69 115 91
a 69 115 107
a 70 58 18
a 70 58 92
a 70 100 36
a 70 100 123
a 70 60 16
a 70 60 82
a 70 60 45
a 70 34 36
a 70 34 42
a 70 66 18
a 71 97 68
a 71 97 44
a 71 97 20
a 71 102 82
a 71 102 73
a 71 43 29
a 71 31 2
a 72 95 125
a 72 95 70
a 72 111 103
a 72 111 119
a 72 111 74
a 72 87 71
a 72 87 4
a 72 18 99
a 72 64 120
a 73 61 60
a 73 61 63
a 73 61 86
a 73 123 98
a 73 14 30
a 73 14 28
a 74 90 92
a 74 90 15
a 74 90 52
a 74 106 76
a 74 106 123
a 74 102 13
a 75 124 58
a 75 124 82
a 75 118 15
a 75 118 124
a 75 118 54
a 75 114 111
a 75 114 42
a 75 101 103
a 75 101 21
a 75 101 105
a 75 24 115
a 75 24 85
a 75 80 114
a 75 77 92
a 76 24 91
a 76 24 111
a 76 8 81
a 76 8 49
a 76 112 22
a 76 112 32
a 76 112 104
a 76 120 48
a 76 120 113
a 77 33 59
a 77 33 9
a 77 33 82
a 77 92 63
a 77 92 51
a 77 46 121
a 77 46 85
a 77 46 80
a 77 10 120
a 78 26 115
a 78 26 8
a 78 26 67
a 78 82 114
a 78 82 95
a 78 82 82
a 78 28 67
a 79 121 60
a 79 121 8
a 79 121 49
a 79 95 122
a 80 44 63
a 80 44 10
a 80 73 59
a 80 117 46
a 80 74 127
a 81 17 104
a 81 17 42
a 81 17 61
a 81 119 94
a 81 119 21
a 81 86 51
a 81 86 49
a 81 100 67
a 81 100 43
a 82 78 113
a 82 78 8
a 83 16 46
a 83 16 49
a 83 16 20
a 83 53 63
a 83 53 14
a 83 53 12
a 83 126 87
a 83 126 8
a 84 122 37
a 85 107 110
a 85 107 47
a 85 107 31
a 85 108 85
a 85 108 99
a 85 108 32
a 85 102 38
a 86 17 16
a 86 17 32
a 86 119 7
a 86 119 60
a 86 58 59
a 86 58 90
a 86 62 125
a 86 54 81
a 87 95 104
a 87 95 63
a 87 95 105
a 87 72 11
a 87 72 13
a 87 72 123
a 87 111 85
a 87 111 50
a 87 18 7
a 88 27 41
a 88 27 71
a 88 27 90
a 89 54 61
a 89 54 92
a 89 54 31
a 89 122 57
a 89 122 105
a 89 35 6
a 89 35 47
a 89 35 115
a 90 106 92
a 90 106 22
a 90 74 37
a 90 74 95
a 90 102 47
a 90 31 7
a 91 56 36
a 91 56 0
a 91 56 90
a 91 69 29
a 91 69 98
a 91 69 85
a 91 126 37
a 91 126 42
a 91 115 39
a 91 115 13
a 91 75 80
a 91 38 49
a 91 30 67
a 92 33 38
a 92 33 81
a 92 33 60
a 92 105 69
a 92 105 22
a 92 127 25
a 92 127 13
a 92 77 56
a 92 77 85
a 92 77 125
a 92 22 62
a 93 65 64
a 93 65 42
a 93 6 101
a 93 6 42
a 93 109 114
a 93 109 91
a 93 109 48
a 93 113 73
a 93 113 94
a 93 113 9
a 93 46 127
a 94 30 75
a 94 30 105
a 94 30 32
a 94 51 32
a 94 51 63
a 94 21 120
a 94 89 23
a 94 89 11
a 95 72 115
a 95 72 69
a 95 72 12
a 95 111 108
a 95 111 57
a 95 111 35
a 95 87 33
a 95 87 55
a 95 87 69
a 96 110 119
a 96 110 44
a 96 57 78
a 96 57 38
a 96 57 34
a 96 23 42
a 96 23 12
a 96 23 118
a 96 105 52
a 96 105 36
a 96 105 96
a 96 37 19
a 96 50 56
a 97 102 11
a 97 102 119
a 97 3 115
a 97 3 89
a 97 3 30
a 97 71 25
a 97 71 25
a 97 71 16
a 97 49 126
a 97 49 45
a 98 29 57
a 98 29 68
a 98 29 113
a 98 18 93
a 98 18 101
a 98 18 99
a 98 103 19
a 98 103 46
a 98 9 20
a 98 9 46
a 98 40 117
a 98 40 99
a 98 65 104
a 98 57 112
a 98 30 44
a 99 88 94
a 99 88 33
a 99 27 90
a 99 27 91
a 99 27 123
a 99 1 54
a 99 83 57
a 100 58 37
a 100 58 87
a 100 60 99
a 100 60 23
a 100 60 77
a 100 70 106
a 100 70 46
a 100 62 72
a 101 124 75
a 101 124 84
a 101 118 78
a 101 118 43
a 101 118 124
a 101 114 18
a 101 114 30
a 101 75 102
a 101 75 8
a 101 76 83
a 101 76 85
a 102 97 13
a 102 97 118
a 102 3 47
a 102 3 19
a 102 3 57
a 102 71 96
a 102 71 108
a 102 43 26
a 103 29 52
a 103 29 58
a 103 29 4
a 103 9 90
a 103 9 100
a 103 98 53
a 103 98 69
a 103 98 6
a 104 50 107
a 104 50 91
a 104 50 22
a 104 128 104
a 104 128 32
a 104 128 53
a 104 78 15
a 104 78 115
a 105 33 69
a 105 33 14
a 105 33 40
a 105 127 74
a 105 127 114
a 105 77 34
a 105 77 59
a 105 92 67
a 105 92 83
a 105 92 51
a 105 22 5
a 106 90 114
a 106 90 44
a 106 90 33
a 106 97 26
a 106 97 80
a 106 66 114
a 107 85 3
a 107 85 24
a 107 2 81
a 107 2 123
a 107 71 51
a 108 2 104
a 108 2 102
a 108 2 47
a 108 90 44
a 108 74 42
a 109 65 6
a 109 65 4
a 109 6 78
a 109 6 68
a 109 113 101
a 109 113 5
a 109 93 43
a 109 93 17
a 109 93 22
a 109 92 77
a 110 57 113
a 110 57 18
a 110 23 85
a 110 23 27
a 110 96 99
a 110 96 44
a 110 96 70
a 110 33 87
a 110 81 16
a 111 95 124
a 111 95 39
a 111 95 86
a 111 72 44
a 111 72 22
a 111 29 51
a 112 24 99
a 112 24 89
a 112 24 17
a 112 76 92
a 112 76 122
a 112 76 11
a 112 8 89
a 112 8 55
a 112 8 0
a 112 120 99
a 112 120 36
a 112 44 8
a 112 44 76
a 113 65 53
a 113 65 87
a 113 6 51
a 113 6 95
a 113 109 37
a 113 109 67
a 113 109 2
a 113 93 77
a 113 93 67
a 113 110 26
a 113 110 101
a 113 23 65
a 114 124 80
a 114 124 98
a 114 124 62
a 114 118 111
a 114 118 96
a 114 118 2
a 114 75 4
a 114 75 18
a 114 8 91
a 114 8 120
a 115 69 63
a 115 69 26
a 115 91 95
a 115 91 6
a 115 91 1
a 115 42 47
a 116 43 95
a 116 43 5
a 116 43 123
a 116 4 101
a 116 4 44
a 116 66 115
a 116 66 55
a 116 49 86
a 117 5 25
a 117 5 117
a 117 123 39
a 117 123 43
a 117 123 27
a 117 52 67
a 117 52 96
a 117 52 50
a 117 14 49
a 117 14 126
a 117 14 5
a 118 124 22
a 118 124 8
a 118 124 63
a 118 114 28
a 118 114 40
a 118 75 54
a 118 75 101
a 118 75 40
a 118 101 59
a 118 101 57
a 118 101 36
a 118 80 27
a 118 2 111
a 119 17 70
a 119 17 72
a 119 86 48
a 119 86 79
a 119 86 11
a 119 81 126
a 119 81 95
a 119 81 105
a 119 60 78
a 120 24 45
a 120 24 57
a 120 24 28
a 120 76 78
a 120 76 69
a 120 76 25
a 120 112 100
a 120 112 39
a 120 45 84
a 120 45 86
a 120 52 25
a 120 60 48
a 121 79 31
a 121 79 38
a 121 72 26
a 121 64 2
a 122 54 107
a 122 54 72
a 122 54 113
a 122 35 51
a 122 35 75
a 122 20 35
a 123 5 72
a 123 5 123
a 123 5 55
a 123 117 101
a 123 117 105
a 123 14 122
a 123 14 76
a 123 60 127
a 124 118 61
a 124 118 89
a 124 118 31
a 124 114 90
a 124 114 112
a 124 114 50
a 124 75 111
a 124 75 123
a 124 101 109
a 124 101 60
a 124 101 57
a 125 55 127
a 125 55 41
a 125 1 19
a 125 1 65
a 125 1 21
a 125 83 51
a 125 83 103
a 125 53 84
a 125 53 87
a 125 115 106
a 126 56 39
a 126 56 71
a 126 69 57
a 126 69 110
a 126 91 85
a 126 91 49
a 126 115 122
a 126 115 43
a 127 33 64
a 127 33 110
a 127 33 79
a 127 105 68
a 127 105 86
a 127 77 29
a 127 77 114
a 127 92 33
a 127 92 108
a 127 92 72
a 127 59 11
a 128 7 55
a 128 7 0
a 128 104 45
a 128 104 4
a 128 26 124
a 128 26 10
a 128 28 44
